(set-logic QF_S)
(declare-fun var0 () String)
(declare-fun var1 () String)
(declare-fun var2 () String)
(declare-fun var3 () String)
(declare-fun var4 () String)
(declare-fun var5 () String)
(declare-fun var6 () String)
(declare-fun var7 () String)
(declare-fun var8 () String)
(declare-fun var9 () String)
(declare-fun var10 () String)
(declare-fun var11 () String)
(declare-fun var12 () String)
(declare-fun var13 () String)
(declare-fun var14 () String)
(declare-fun var15 () String)
(declare-fun var16 () String)
(declare-fun var17 () String)
(declare-fun var18 () String)
(declare-fun var19 () String)
(declare-fun var20 () String)
(declare-fun var21 () String)
(declare-fun var22 () String)
(declare-fun var23 () String)
(declare-fun var24 () String)
(declare-fun var25 () String)
(declare-fun var26 () String)
(declare-fun var27 () String)
(declare-fun var28 () String)
(declare-fun var29 () String)
(declare-fun var30 () String)
(declare-fun var31 () String)
(declare-fun var32 () String)
(declare-fun var33 () String)
(declare-fun var34 () String)
(declare-fun var35 () String)
(declare-fun var36 () String)
(declare-fun var37 () String)
(declare-fun var38 () String)
(declare-fun var39 () String)
(declare-fun var40 () String)
(declare-fun var41 () String)
(declare-fun var42 () String)
(declare-fun var43 () String)
(declare-fun var44 () String)
(declare-fun var45 () String)
(declare-fun var46 () String)
(declare-fun var47 () String)
(declare-fun var48 () String)
(declare-fun var49 () String)
(declare-fun var50 () String)
(declare-fun var51 () String)
(declare-fun var52 () String)
(declare-fun var53 () String)
(declare-fun var54 () String)
(declare-fun var55 () String)
(declare-fun var56 () String)
(declare-fun var57 () String)
(declare-fun var58 () String)
(declare-fun var59 () String)
(declare-fun var60 () String)
(assert (= var0 (Concat var1 var2)))
(assert (= var2 (Concat var3 var4)))
(assert (= var4 (Concat var5 var6)))
(assert (= var6 (Concat var7 var8)))
(assert (= var8 (Concat var9 var10)))
(assert (= var10 (Concat var11 var12)))
(assert (= var12 (Concat var13 var14)))
(assert (= var14 (Concat var15 var16)))
(assert (= var16 (Concat var17 var18)))
(assert (= var18 (Concat var19 var20)))
(assert (= var20 (Concat var21 var22)))
(assert (= var22 (Concat var23 var24)))
(assert (= var24 (Concat var25 var26)))
(assert (= var26 (Concat var27 var28)))
(assert (= var28 (Concat var29 var30)))
(assert (= var30 (Concat var31 var32)))
(assert (= var32 (Concat var33 var34)))
(assert (= var34 (Concat var35 var36)))
(assert (= var36 (Concat var37 var38)))
(assert (= var38 (Concat var39 var40)))
(assert (= var40 (Concat var41 var42)))
(assert (= var42 (Concat var43 var44)))
(assert (= var44 (Concat var45 var46)))
(assert (= var46 (Concat var47 var48)))
(assert (= var48 (Concat var49 var50)))
(assert (= var50 (Concat var51 var52)))
(assert (= var52 (Concat var53 var54)))
(assert (= var54 (Concat var55 var56)))
(assert (= var56 (Concat var57 var58)))
(assert (= var58 (Concat var59 var60)))
(assert (= var0 "solution"))
(assert (= "|" (CharAt var38 966)))
(assert (= ";" (CharAt var41 295)))
(assert (= "|" (CharAt var34 92)))
(assert (= "$" (CharAt var24 106)))
(assert (= "." (CharAt var56 911)))
(assert (= "Y" (CharAt var55 35)))
(assert (= ";" (CharAt var42 456)))
(assert (= "," (CharAt var31 486)))
(assert (= "}" (CharAt var23 136)))
(assert (= "." (CharAt var58 506)))
(assert (= "-" (CharAt var26 919)))
(assert (= "Z" (CharAt var38 976)))
(assert (= "*" (CharAt var26 781)))
(assert (= "P" (CharAt var19 888)))
(assert (= "o" (CharAt var10 508)))
(assert (= ">" (CharAt var14 147)))
(assert (= "\"" (CharAt var27 955)))
(assert (= "k" (CharAt var51 472)))
(assert (= "3" (CharAt var14 986)))
(assert (= "W" (CharAt var18 289)))
(assert (= "_" (CharAt var56 243)))
(assert (= "." (CharAt var41 287)))
(assert (= "p" (CharAt var8 686)))
(assert (= "o" (CharAt var40 152)))
(assert (= "-" (CharAt var5 707)))
(assert (= "_" (CharAt var57 621)))
(assert (= "2" (CharAt var53 176)))
(assert (= "E" (CharAt var28 753)))
(assert (= "X" (CharAt var36 422)))
(assert (= "~" (CharAt var30 127)))
(assert (= "e" (CharAt var3 444)))
(assert (= "\\" (CharAt var31 430)))
(assert (= "D" (CharAt var9 70)))
(assert (= "=" (CharAt var47 46)))
(assert (= "(" (CharAt var54 143)))
(assert (= "b" (CharAt var51 375)))
(assert (= "X" (CharAt var58 341)))
(assert (= "2" (CharAt var57 994)))
(assert (= "C" (CharAt var19 634)))
(assert (= "\"" (CharAt var4 767)))
(assert (= "1" (CharAt var20 266)))
(assert (= "(" (CharAt var6 371)))
(assert (= "[" (CharAt var52 739)))
(assert (= "l" (CharAt var54 641)))
(assert (= "K" (CharAt var58 382)))
(assert (= "g" (CharAt var53 937)))
(assert (= "o" (CharAt var39 743)))
(assert (= "$" (CharAt var42 699)))
(assert (= "<" (CharAt var54 232)))
(assert (= "Y" (CharAt var38 817)))
(assert (= ":" (CharAt var39 355)))
(assert (= "s" (CharAt var30 667)))
(assert (= "{" (CharAt var52 239)))
(assert (= "Z" (CharAt var44 561)))
(assert (= "?" (CharAt var59 618)))
(assert (= "J" (CharAt var59 278)))
(assert (= "Z" (CharAt var0 745)))
(assert (= "O" (CharAt var49 799)))
(assert (= "H" (CharAt var51 826)))
(assert (= "%" (CharAt var53 86)))
(assert (= "l" (CharAt var20 112)))
(assert (= "m" (CharAt var9 648)))
(assert (= "2" (CharAt var29 774)))
(assert (= "o" (CharAt var40 989)))
(assert (= "&" (CharAt var45 744)))
(assert (= "4" (CharAt var23 261)))
(assert (= "3" (CharAt var14 843)))
(assert (= "w" (CharAt var34 4)))
(assert (= "j" (CharAt var9 408)))
(assert (= "p" (CharAt var13 292)))
(assert (= ";" (CharAt var56 721)))
(assert (= "5" (CharAt var29 483)))
(assert (= "%" (CharAt var56 166)))
(assert (= "B" (CharAt var4 282)))
(assert (= "6" (CharAt var0 919)))
(assert (= "V" (CharAt var0 904)))
(assert (= "c" (CharAt var30 509)))
(assert (= "^" (CharAt var47 648)))
(assert (= "!" (CharAt var44 781)))
(assert (= "Z" (CharAt var10 252)))
(assert (= "|" (CharAt var27 585)))
(assert (= "H" (CharAt var19 408)))
(assert (= "'" (CharAt var32 124)))
(assert (= "q" (CharAt var48 710)))
(assert (= "1" (CharAt var31 324)))
(assert (= "I" (CharAt var55 946)))
(assert (= "\\" (CharAt var29 641)))
(assert (= "d" (CharAt var41 154)))
(assert (= "R" (CharAt var59 505)))
(assert (= "/" (CharAt var19 104)))
(assert (= "G" (CharAt var5 619)))
(assert (= "1" (CharAt var46 227)))
(assert (= "." (CharAt var22 223)))
(assert (= "x" (CharAt var37 59)))
(assert (= "7" (CharAt var31 48)))
(assert (= "L" (CharAt var25 287)))
(assert (= "&" (CharAt var13 956)))
(assert (= ">" (CharAt var30 893)))
(assert (= "l" (CharAt var58 433)))
(assert (= "p" (CharAt var4 889)))
(assert (= "r" (CharAt var20 92)))
(assert (= "B" (CharAt var1 633)))
(assert (= "O" (CharAt var59 16)))
(assert (= "!" (CharAt var47 138)))
(assert (= "x" (CharAt var44 769)))
(assert (= "6" (CharAt var16 308)))
(assert (= "{" (CharAt var11 128)))
(assert (= "C" (CharAt var7 799)))
(assert (= "U" (CharAt var13 409)))
(assert (= "$" (CharAt var35 690)))
(assert (= "U" (CharAt var51 698)))
(assert (= "q" (CharAt var46 475)))
(assert (= "F" (CharAt var7 721)))
(assert (= "z" (CharAt var10 40)))
(assert (= "X" (CharAt var2 643)))
(assert (= "m" (CharAt var51 59)))
(assert (= "J" (CharAt var14 629)))
(assert (= "*" (CharAt var4 917)))
(assert (= "M" (CharAt var8 890)))
(assert (= "<" (CharAt var29 642)))
(assert (= "=" (CharAt var5 929)))
(assert (= "S" (CharAt var60 311)))
(assert (= "V" (CharAt var19 5)))
(assert (= "[" (CharAt var23 829)))
(assert (= "?" (CharAt var0 155)))
(assert (= "Y" (CharAt var49 604)))
(assert (= "2" (CharAt var59 310)))
(assert (= "/" (CharAt var47 235)))
(assert (= "@" (CharAt var44 565)))
(assert (= "=" (CharAt var56 921)))
(assert (= "7" (CharAt var43 661)))
(assert (= "N" (CharAt var11 8)))
(assert (= "!" (CharAt var50 333)))
(assert (= "W" (CharAt var54 203)))
(assert (= "E" (CharAt var10 167)))
(assert (= "=" (CharAt var15 967)))
(assert (= "4" (CharAt var7 436)))
(assert (= "B" (CharAt var31 900)))
(assert (= "V" (CharAt var6 358)))
(assert (= "\\" (CharAt var32 100)))
(assert (= "F" (CharAt var58 336)))
(assert (= "^" (CharAt var22 7)))
(assert (= "4" (CharAt var21 339)))
(assert (= "O" (CharAt var26 95)))
(assert (= "c" (CharAt var40 606)))
(assert (= "," (CharAt var37 570)))
(assert (= "j" (CharAt var29 65)))
(assert (= "O" (CharAt var40 134)))
(assert (= "#" (CharAt var31 106)))
(assert (= "|" (CharAt var30 79)))
(assert (= "!" (CharAt var19 545)))
(assert (= "<" (CharAt var45 10)))
(assert (= "f" (CharAt var5 925)))
(assert (= "6" (CharAt var9 238)))
(assert (= "g" (CharAt var30 199)))
(assert (= "c" (CharAt var17 449)))
(assert (= "P" (CharAt var39 937)))
(assert (= "?" (CharAt var47 288)))
(assert (= "\"" (CharAt var42 906)))
(assert (= "@" (CharAt var51 913)))
(assert (= ">" (CharAt var17 850)))
(assert (= "\\" (CharAt var18 339)))
(assert (= "J" (CharAt var49 167)))
(assert (= "{" (CharAt var4 853)))
(assert (= "|" (CharAt var55 215)))
(assert (= "A" (CharAt var27 182)))
(assert (= "l" (CharAt var52 82)))
(assert (= "=" (CharAt var0 733)))
(assert (= "K" (CharAt var13 309)))
(assert (= "h" (CharAt var9 657)))
(assert (= "v" (CharAt var51 705)))
(assert (= "D" (CharAt var31 366)))
(assert (= ";" (CharAt var19 682)))
(assert (= "(" (CharAt var36 235)))
(assert (= "B" (CharAt var56 289)))
(assert (= "$" (CharAt var52 46)))
(assert (= "p" (CharAt var51 510)))
(assert (= "P" (CharAt var44 390)))
(assert (= "M" (CharAt var20 689)))
(assert (= "1" (CharAt var8 900)))
(assert (= "R" (CharAt var52 78)))
(assert (= "I" (CharAt var30 20)))
(assert (= "D" (CharAt var20 794)))
(assert (= "#" (CharAt var9 297)))
(assert (= "j" (CharAt var19 904)))
(assert (= "c" (CharAt var60 109)))
(assert (= "\"" (CharAt var10 366)))
(assert (= "P" (CharAt var42 249)))
(assert (= "=" (CharAt var37 975)))
(assert (= "[" (CharAt var53 397)))
(assert (= "\\" (CharAt var44 964)))
(assert (= "r" (CharAt var49 104)))
(assert (= "f" (CharAt var14 878)))
(assert (= "E" (CharAt var57 126)))
(assert (= "v" (CharAt var56 995)))
(assert (= "\\" (CharAt var16 150)))
(assert (= "^" (CharAt var23 471)))
(assert (= "D" (CharAt var36 226)))
(assert (= "8" (CharAt var20 91)))
(assert (= ")" (CharAt var42 304)))
(assert (= "E" (CharAt var26 586)))
(assert (= "n" (CharAt var9 649)))
(assert (= "4" (CharAt var47 29)))
(assert (= "P" (CharAt var0 84)))
(assert (= "&" (CharAt var60 332)))
(assert (= "c" (CharAt var42 276)))
(assert (= "7" (CharAt var28 210)))
(assert (= ":" (CharAt var0 790)))
(assert (= "x" (CharAt var54 255)))
(assert (= "7" (CharAt var51 299)))
(assert (= "%" (CharAt var37 215)))
(assert (= "}" (CharAt var0 390)))
(assert (= "j" (CharAt var47 508)))
(assert (= "i" (CharAt var2 729)))
(assert (= "f" (CharAt var50 1)))
(assert (= "k" (CharAt var5 294)))
(assert (= "C" (CharAt var36 217)))
(assert (= ":" (CharAt var46 351)))
(assert (= "'" (CharAt var21 195)))
(assert (= "J" (CharAt var29 293)))
(assert (= ">" (CharAt var9 958)))
(assert (= "%" (CharAt var15 366)))
(assert (= "U" (CharAt var0 109)))
(assert (= "W" (CharAt var51 600)))
(assert (= "R" (CharAt var11 894)))
(assert (= "P" (CharAt var47 952)))
(assert (= "o" (CharAt var42 516)))
(assert (= "h" (CharAt var29 882)))
(assert (= "z" (CharAt var20 443)))
(assert (= "<" (CharAt var55 285)))
(assert (= "u" (CharAt var55 650)))
(assert (= "r" (CharAt var39 147)))
(assert (= "v" (CharAt var51 454)))
(assert (= "e" (CharAt var20 896)))
(assert (= "n" (CharAt var51 759)))
(assert (= "5" (CharAt var19 551)))
(assert (= "R" (CharAt var35 809)))
(assert (= "e" (CharAt var51 195)))
(assert (= "5" (CharAt var53 645)))
(assert (= "5" (CharAt var3 746)))
(assert (= "[" (CharAt var33 955)))
(assert (= "?" (CharAt var3 452)))
(assert (= "]" (CharAt var55 220)))
(assert (= "c" (CharAt var5 178)))
(assert (= "v" (CharAt var25 825)))
(assert (= ":" (CharAt var51 421)))
(assert (= "a" (CharAt var2 39)))
(assert (= "T" (CharAt var20 635)))
(assert (= "%" (CharAt var10 401)))
(assert (= "P" (CharAt var20 720)))
(assert (= "N" (CharAt var4 523)))
(assert (= "-" (CharAt var15 491)))
(assert (= "&" (CharAt var39 920)))
(assert (= "D" (CharAt var47 783)))
(assert (= "/" (CharAt var50 705)))
(assert (= "4" (CharAt var52 512)))
(assert (= "8" (CharAt var13 417)))
(assert (= "]" (CharAt var39 351)))
(assert (= "P" (CharAt var53 78)))
(assert (= "`" (CharAt var38 655)))
(assert (= "|" (CharAt var20 479)))
(assert (= "q" (CharAt var16 687)))
(assert (= "#" (CharAt var22 670)))
(assert (= "\\" (CharAt var31 117)))
(assert (= "k" (CharAt var21 48)))
(assert (= "|" (CharAt var0 772)))
(assert (= "V" (CharAt var12 55)))
(assert (= "&" (CharAt var56 922)))
(assert (= "/" (CharAt var7 181)))
(assert (= "I" (CharAt var42 806)))
(assert (= "H" (CharAt var11 412)))
(assert (= "(" (CharAt var60 61)))
(assert (= "B" (CharAt var51 325)))
(assert (= "*" (CharAt var37 232)))
(assert (= "{" (CharAt var24 464)))
(assert (= "Q" (CharAt var52 862)))
(assert (= "\"" (CharAt var16 198)))
(assert (= "}" (CharAt var10 345)))
(assert (= "l" (CharAt var24 250)))
(assert (= "N" (CharAt var20 128)))
(assert (= "-" (CharAt var44 117)))
(assert (= "P" (CharAt var57 579)))
(assert (= "K" (CharAt var43 895)))
(assert (= "I" (CharAt var47 31)))
(assert (= "'" (CharAt var19 700)))
(assert (= "~" (CharAt var29 823)))
(assert (= "M" (CharAt var60 582)))
(assert (= "r" (CharAt var26 590)))
(assert (= "?" (CharAt var23 71)))
(assert (= "@" (CharAt var44 190)))
(assert (= "1" (CharAt var0 259)))
(assert (= "2" (CharAt var19 754)))
(assert (= "p" (CharAt var41 424)))
(assert (= "?" (CharAt var34 426)))
(assert (= "l" (CharAt var55 862)))
(assert (= "F" (CharAt var45 950)))
(assert (= "o" (CharAt var7 850)))
(assert (= "*" (CharAt var14 59)))
(assert (= "\\" (CharAt var53 676)))
(assert (= "C" (CharAt var53 614)))
(assert (= "/" (CharAt var54 810)))
(assert (= "]" (CharAt var40 986)))
(assert (= "b" (CharAt var10 533)))
(assert (= "-" (CharAt var57 497)))
(assert (= "+" (CharAt var48 309)))
(assert (= "+" (CharAt var54 504)))
(assert (= "7" (CharAt var36 83)))
(assert (= "i" (CharAt var33 597)))
(assert (= "u" (CharAt var6 441)))
(assert (= "6" (CharAt var18 114)))
(assert (= "~" (CharAt var8 539)))
(assert (= "9" (CharAt var25 82)))
(assert (= "S" (CharAt var0 293)))
(assert (= "%" (CharAt var0 748)))
(assert (= "^" (CharAt var15 960)))
(assert (= "3" (CharAt var42 283)))
(assert (= "v" (CharAt var21 297)))
(assert (= "m" (CharAt var55 996)))
(assert (= "I" (CharAt var22 48)))
(assert (= "+" (CharAt var32 798)))
(assert (= "N" (CharAt var33 214)))
(assert (= ">" (CharAt var0 633)))
(assert (= "^" (CharAt var39 545)))
(assert (= "G" (CharAt var19 385)))
(assert (= "$" (CharAt var60 704)))
(assert (= "^" (CharAt var60 733)))
(assert (= "s" (CharAt var53 501)))
(assert (= "," (CharAt var25 368)))
(assert (= "G" (CharAt var51 518)))
(assert (= "Y" (CharAt var43 858)))
(assert (= "C" (CharAt var6 172)))
(assert (= ";" (CharAt var52 781)))
(assert (= "T" (CharAt var12 113)))
(assert (= "A" (CharAt var19 909)))
(assert (= "%" (CharAt var54 407)))
(assert (= "*" (CharAt var21 591)))
(assert (= "~" (CharAt var27 128)))
(assert (= "S" (CharAt var11 245)))
(assert (= "u" (CharAt var20 395)))
(assert (= "+" (CharAt var0 623)))
(assert (= "P" (CharAt var45 55)))
(assert (= "]" (CharAt var60 397)))
(assert (= "\"" (CharAt var5 493)))
(assert (= "y" (CharAt var3 572)))
(assert (= "v" (CharAt var58 919)))
(assert (= "n" (CharAt var48 613)))
(assert (= ")" (CharAt var12 806)))
(assert (= "<" (CharAt var34 522)))
(assert (= "V" (CharAt var59 228)))
(assert (= "F" (CharAt var60 664)))
(assert (= "O" (CharAt var11 697)))
(assert (= "c" (CharAt var24 7)))
(assert (= "d" (CharAt var37 713)))
(assert (= "V" (CharAt var45 148)))
(assert (= "'" (CharAt var20 456)))
(assert (= "-" (CharAt var44 305)))
(assert (= "4" (CharAt var3 517)))
(assert (= "k" (CharAt var50 573)))
(assert (= "j" (CharAt var47 407)))
(assert (= "o" (CharAt var36 413)))
(assert (= "x" (CharAt var12 498)))
(assert (= "*" (CharAt var29 997)))
(assert (= "i" (CharAt var49 371)))
(assert (= "c" (CharAt var11 485)))
(assert (= "A" (CharAt var25 614)))
(assert (= "x" (CharAt var20 544)))
(assert (= "<" (CharAt var59 92)))
(assert (= "M" (CharAt var27 730)))
(assert (= "3" (CharAt var13 797)))
(assert (= "%" (CharAt var47 750)))
(assert (= "6" (CharAt var39 461)))
(assert (= "&" (CharAt var33 721)))
(assert (= "s" (CharAt var27 372)))
(assert (= "a" (CharAt var44 275)))
(assert (= "B" (CharAt var11 217)))
(assert (= "I" (CharAt var46 39)))
(assert (= "6" (CharAt var5 234)))
(assert (= "Y" (CharAt var49 787)))
(assert (= "E" (CharAt var29 444)))
(assert (= "B" (CharAt var43 13)))
(assert (= "n" (CharAt var60 782)))
(assert (= "d" (CharAt var4 413)))
(assert (= "O" (CharAt var7 452)))
(assert (= "h" (CharAt var60 185)))
(assert (= "c" (CharAt var48 772)))
(assert (= "A" (CharAt var39 654)))
(assert (= "'" (CharAt var59 397)))
(assert (= "L" (CharAt var38 936)))
(assert (= "o" (CharAt var57 814)))
(assert (= "3" (CharAt var19 426)))
(assert (= "[" (CharAt var25 639)))
(assert (= "$" (CharAt var47 737)))
(assert (= "E" (CharAt var6 296)))
(assert (= "\\" (CharAt var21 721)))
(assert (= "N" (CharAt var59 756)))
(assert (= "," (CharAt var5 134)))
(assert (= "i" (CharAt var34 720)))
(assert (= "T" (CharAt var15 401)))
(assert (= "$" (CharAt var11 956)))
(assert (= "B" (CharAt var30 236)))
(assert (= "M" (CharAt var18 175)))
(assert (= "/" (CharAt var8 543)))
(assert (= "Z" (CharAt var40 188)))
(assert (= "~" (CharAt var17 691)))
(assert (= ":" (CharAt var12 777)))
(assert (= "g" (CharAt var17 619)))
(assert (= "^" (CharAt var51 769)))
(assert (= "H" (CharAt var33 838)))
(assert (= "m" (CharAt var27 331)))
(assert (= ";" (CharAt var14 142)))
(assert (= "]" (CharAt var42 156)))
(assert (= "i" (CharAt var0 484)))
(assert (= "R" (CharAt var20 970)))
(assert (= "2" (CharAt var15 564)))
(assert (= "T" (CharAt var40 996)))
(assert (= "0" (CharAt var55 538)))
(assert (= "\"" (CharAt var32 776)))
(assert (= "}" (CharAt var32 307)))
(assert (= "\"" (CharAt var26 911)))
(assert (= "9" (CharAt var38 712)))
(assert (= "s" (CharAt var8 292)))
(assert (= ">" (CharAt var45 516)))
(assert (= "E" (CharAt var27 838)))
(assert (= "K" (CharAt var27 841)))
(assert (= "/" (CharAt var12 144)))
(assert (= "L" (CharAt var46 51)))
(assert (= "m" (CharAt var18 563)))
(assert (= "V" (CharAt var28 201)))
(assert (= "G" (CharAt var37 184)))
(assert (= "a" (CharAt var4 550)))
(assert (= "L" (CharAt var20 901)))
(assert (= "H" (CharAt var1 465)))
(assert (= "d" (CharAt var9 149)))
(assert (= "|" (CharAt var1 653)))
(assert (= "7" (CharAt var51 448)))
(assert (= "M" (CharAt var25 29)))
(assert (= "N" (CharAt var26 580)))
(assert (= "o" (CharAt var36 197)))
(assert (= "O" (CharAt var18 667)))
(assert (= "J" (CharAt var18 279)))
(assert (= "Z" (CharAt var50 13)))
(assert (= "<" (CharAt var2 444)))
(assert (= "M" (CharAt var32 22)))
(assert (= ";" (CharAt var26 438)))
(assert (= "g" (CharAt var11 101)))
(assert (= "q" (CharAt var4 72)))
(assert (= "g" (CharAt var40 265)))
(assert (= "-" (CharAt var46 225)))
(assert (= "o" (CharAt var16 623)))
(assert (= "K" (CharAt var54 217)))
(assert (= "Z" (CharAt var21 187)))
(assert (= "5" (CharAt var59 132)))
(assert (= "%" (CharAt var23 249)))
(assert (= "a" (CharAt var30 523)))
(assert (= "g" (CharAt var57 238)))
(assert (= "O" (CharAt var35 518)))
(assert (= "t" (CharAt var44 34)))
(assert (= "f" (CharAt var30 602)))
(assert (= "{" (CharAt var49 27)))
(assert (= "@" (CharAt var53 866)))
(assert (= "?" (CharAt var52 663)))
(assert (= "l" (CharAt var18 733)))
(assert (= "y" (CharAt var32 79)))
(assert (= "%" (CharAt var18 133)))
(assert (= "\\" (CharAt var8 19)))
(assert (= "z" (CharAt var16 931)))
(assert (= "V" (CharAt var59 501)))
(assert (= "L" (CharAt var15 134)))
(assert (= "L" (CharAt var9 91)))
(assert (= "b" (CharAt var37 933)))
(assert (= "{" (CharAt var11 388)))
(assert (= "O" (CharAt var23 527)))
(assert (= "D" (CharAt var58 371)))
(assert (= "}" (CharAt var55 462)))
(assert (= "k" (CharAt var26 212)))
(assert (= "@" (CharAt var40 589)))
(assert (= "O" (CharAt var0 444)))
(assert (= "O" (CharAt var46 785)))
(assert (= "k" (CharAt var37 541)))
(assert (= "$" (CharAt var24 498)))
(assert (= "D" (CharAt var1 586)))
(check-sat)